17	4
8	20	17	10	
0	0	0	0	0	3	2	3	4	
3	0	1	0	0	3	7	10	11	
4	0	0	9	0	3	6	13	17	
10	0	0	8	0	3	5	8	9	
7	7	0	0	0	3	12	17	17	
50	4	0	0	0	3	10	16	17	
150	0	6	0	0	2	14	17	
225	0	10	0	0	3	17	17	17	
200	0	9	0	0	3	10	14	15	
200	0	10	0	0	1	17	
175	0	0	0	3	3	12	16	17	
50	8	0	0	0	3	13	17	17	
7	0	0	0	2	2	17	17	
6	0	0	0	8	3	17	17	17	
3	0	0	7	0	2	16	17	
6	0	0	8	0	3	17	17	17	
0	0	0	0	0	0	
